
  22   10
  10   10   10   10   10   10   10   10   10   10

   0   0   0   0   0   0   0   0   0   0   0   7 2 3 4 5 6 20 21 
   9   0   0   0   0   0   0  10   0   0   0   7 19 18 17 12 9 8 7 
   4   0   0   0  10   0   0   0   0   0   0   6 16 15 14 11 9 8 
   4   0   0   0   0   0   0   0   0   0  10   4 14 13 8 7 
   3   0   0   0   0   0  10   0   0   0   0   4 13 10 9 7 
   9  10   0   0   0   0   0   0   0   0   0   4 12 11 10 7 
   1   0   0   0   0   0   0   0   0  10   0   1 22
   6   0   0   0   0   0   0  10   0   0   0   1 22
   9   0   0   0   0   0   0   0   0  10   0   1 22
   3   0   0   0   0   0   0  10   0   0   0   1 22
   3   0   0   0   0   0   0   0  10   0   0   1 22
   8   0   0   0  10   0   0   0   0   0   0   1 22
   1   0  10   0   0   0   0   0   0   0   0   1 22
   5   0  10   0   0   0   0   0   0   0   0   1 22
   4   0   0   0   0   0  10   0   0   0   0   1 22
   1   0   0   0  10   0   0   0   0   0   0   1 22
   4   0   0   0   0   0   0   0   0   0  10   1 22
   6   0   0  10   0   0   0   0   0   0   0   1 22
   6   0   0   0   0   0   0  10   0   0   0   1 22
   9   0   0   0   0   0   0   0   0   0  10   1 22
   2   0   0  10   0   0   0   0   0   0   0   1 22
   0   0   0   0   0   0   0   0   0   0   0   0 
